Route #1: 40 2 61 87 150 112 132 66 148
Route #2: 108 102 63 28 33 80 137 124 114 50 130
Route #3: 131 69 139 94 153 52 11 73 104 53 34
Route #4: 118 46 149 99 51 86 82 21 64 147
Route #5: 58 83 135 95 109 141 32 120 138 101 71 92 127 134 47 122
Route #6: 146 110 151 93 100 126 107 36 68 25 81 62 79 121
Route #7: 14 35
Route #8: 26 96
Route #9: 12 8 37
Route #10: 54 125 76 39 18 116 65 105 43
Route #11: 27 13
Route #12: 85 56 20 117 113 59 70 72
Route #13: 123 60 23 97 4
Route #14: 7 5
Route #15: 38 128 57 133 44 152 119 98 19 115 77 136 45 74 91
Route #16: 31 29 90 89
Route #17: 106 111 15 75
Route #18: 140 42 145 67 24 41 48 103
Route #19: 10 30
Route #20: 88 142 6 16
Route #21: 144 17
Route #22: 3 55 143 78 49 129 84
Route #23: 9
Route #24: 22
